20191231 30500.00 19800.00
20180611 27600.00 16600.00
20171204 27638.00 16482.94
20170630 27550.00 13557.14
20170609 27550.00 13557.14
20160630 27200.00 13493.02
20160617 27200.00 13493.02
20160607 27200.00 12413.02
20160226 13600.00 6209.13
